CsSnBr3_AB
1.000
    3.9565693500000001    -6.8529791378697675     0.0000000000000000
    3.9565693500000001     6.8529791378697675     0.0000000000000000
    0.0000000000000000     0.0000000000000000     7.3356315499999996
Cs Sn Br
  2   2   6
Direct
    0.0000000000000000     0.0000000000000000     0.0000000000000000
    0.6666666666666666     0.3333333333333333     0.5000000000000000
    0.3333333333333333     0.6666666666666666     0.2500000000000000
    0.3333333333333333     0.6666666666666666     0.7500000000000000
    0.5000000000000000     0.0000000000000000     0.0000000000000000
    0.0000000000000000     0.5000000000000000     0.0000000000000000
    0.5000000000000000     0.5000000000000000     0.0000000000000000
    0.1666666666666667     0.8333333333333334     0.5000000000000000
    0.1666666666666667     0.3333333333333333     0.5000000000000000
    0.6666666666666666     0.8333333333333334     0.5000000000000000
