12

O          2.31929        0.85379       -0.01010
C          1.23925        0.27452       -0.00898
C          1.16958       -1.20063       -0.01661
C         -0.03023       -1.78580       -0.00121
N         -1.17438       -1.03883        0.01412
C         -1.18650        0.33080        0.00934
O         -2.23237        0.97083        0.01336
N          0.04109        0.93125       -0.00004
H          2.10190       -1.74824       -0.03229
H         -0.14967       -2.86445       -0.00199
H         -2.08426       -1.48610        0.02532
H          0.06131        1.93847        0.00330